p cnf 792 936
-48 -37 109 110 0
-48 -37 109 -110 0
-48 -37 -109 111 0
-48 -37 -109 -111 0
-82 98 112 113 0
-82 98 112 -113 0
-82 98 -112 114 0
-82 98 -112 -114 0
72 -89 115 116 0
72 -89 115 -116 0
72 -89 -115 117 0
72 -89 -115 -117 0
4 26 118 119 0
4 26 118 -119 0
4 26 -118 120 0
4 26 -118 -120 0
101 -78 97 121 0
101 -78 97 -121 0
-69 86 122 123 0
-69 86 122 -123 0
-69 86 -122 124 0
-69 86 -122 -124 0
-3 64 125 126 0
-3 64 125 -126 0
-3 64 -125 127 0
-3 64 -125 -127 0
-74 -22 128 129 0
-74 -22 128 -129 0
-74 -22 -128 130 0
-74 -22 -128 -130 0
43 -24 131 132 0
43 -24 131 -132 0
43 -24 -131 133 0
43 -24 -131 -133 0
-62 15 39 134 0
-62 15 39 -134 0
-104 -19 135 136 0
-104 -19 135 -136 0
-104 -19 -135 137 0
-104 -19 -135 -137 0
-3 -65 138 139 0
-3 -65 138 -139 0
-3 -65 -138 140 0
-3 -65 -138 -140 0
-77 88 141 142 0
-77 88 141 -142 0
-77 88 -141 143 0
-77 88 -141 -143 0
-21 -77 144 145 0
-21 -77 144 -145 0
-21 -77 -144 146 0
-21 -77 -144 -146 0
-82 90 147 148 0
-82 90 147 -148 0
-82 90 -147 149 0
-82 90 -147 -149 0
-101 33 150 151 0
-101 33 150 -151 0
-101 33 -150 152 0
-101 33 -150 -152 0
-13 -103 153 154 0
-13 -103 153 -154 0
-13 -103 -153 155 0
-13 -103 -153 -155 0
-48 -60 156 157 0
-48 -60 156 -157 0
-48 -60 -156 158 0
-48 -60 -156 -158 0
-103 -55 159 160 0
-103 -55 159 -160 0
-103 -55 -159 161 0
-103 -55 -159 -161 0
7 107 -2 162 0
7 107 -2 -162 0
-15 -8 163 164 0
-15 -8 163 -164 0
-15 -8 -163 165 0
-15 -8 -163 -165 0
54 -7 166 167 0
54 -7 166 -167 0
54 -7 -166 168 0
54 -7 -166 -168 0
-44 -99 169 170 0
-44 -99 169 -170 0
-44 -99 -169 171 0
-44 -99 -169 -171 0
-71 -74 172 173 0
-71 -74 172 -173 0
-71 -74 -172 174 0
-71 -74 -172 -174 0
26 -45 175 176 0
26 -45 175 -176 0
26 -45 -175 177 0
26 -45 -175 -177 0
-82 59 178 179 0
-82 59 178 -179 0
-82 59 -178 180 0
-82 59 -178 -180 0
42 34 181 182 0
42 34 181 -182 0
42 34 -181 183 0
42 34 -181 -183 0
88 -100 184 185 0
88 -100 184 -185 0
88 -100 -184 186 0
88 -100 -184 -186 0
78 -69 187 188 0
78 -69 187 -188 0
78 -69 -187 189 0
78 -69 -187 -189 0
-89 -14 190 191 0
-89 -14 190 -191 0
-89 -14 -190 192 0
-89 -14 -190 -192 0
33 102 193 194 0
33 102 193 -194 0
33 102 -193 195 0
33 102 -193 -195 0
-22 -45 196 197 0
-22 -45 196 -197 0
-22 -45 -196 198 0
-22 -45 -196 -198 0
54 -11 199 200 0
54 -11 199 -200 0
54 -11 -199 201 0
54 -11 -199 -201 0
-51 88 202 203 0
-51 88 202 -203 0
-51 88 -202 204 0
-51 88 -202 -204 0
-60 -36 205 206 0
-60 -36 205 -206 0
-60 -36 -205 207 0
-60 -36 -205 -207 0
-46 -65 208 209 0
-46 -65 208 -209 0
-46 -65 -208 210 0
-46 -65 -208 -210 0
73 57 211 212 0
73 57 211 -212 0
73 57 -211 213 0
73 57 -211 -213 0
-87 80 214 215 0
-87 80 214 -215 0
-87 80 -214 216 0
-87 80 -214 -216 0
34 -5 217 218 0
34 -5 217 -218 0
34 -5 -217 219 0
34 -5 -217 -219 0
91 70 220 221 0
91 70 220 -221 0
91 70 -220 222 0
91 70 -220 -222 0
1 -18 45 223 0
1 -18 45 -223 0
-72 95 -57 224 0
-72 95 -57 -224 0
28 31 225 226 0
28 31 225 -226 0
28 31 -225 227 0
28 31 -225 -227 0
-71 -45 228 229 0
-71 -45 228 -229 0
-71 -45 -228 230 0
-71 -45 -228 -230 0
-19 91 231 232 0
-19 91 231 -232 0
-19 91 -231 233 0
-19 91 -231 -233 0
68 -49 234 235 0
68 -49 234 -235 0
68 -49 -234 236 0
68 -49 -234 -236 0
102 -87 237 238 0
102 -87 237 -238 0
102 -87 -237 239 0
102 -87 -237 -239 0
85 -107 240 241 0
85 -107 240 -241 0
85 -107 -240 242 0
85 -107 -240 -242 0
2 -20 243 244 0
2 -20 243 -244 0
2 -20 -243 245 0
2 -20 -243 -245 0
-12 -3 246 247 0
-12 -3 246 -247 0
-12 -3 -246 248 0
-12 -3 -246 -248 0
105 -40 249 250 0
105 -40 249 -250 0
105 -40 -249 251 0
105 -40 -249 -251 0
70 86 252 253 0
70 86 252 -253 0
70 86 -252 254 0
70 86 -252 -254 0
-13 -24 255 256 0
-13 -24 255 -256 0
-13 -24 -255 257 0
-13 -24 -255 -257 0
-74 -44 258 259 0
-74 -44 258 -259 0
-74 -44 -258 260 0
-74 -44 -258 -260 0
100 -68 -79 261 0
100 -68 -79 -261 0
-92 17 262 263 0
-92 17 262 -263 0
-92 17 -262 264 0
-92 17 -262 -264 0
94 25 265 266 0
94 25 265 -266 0
94 25 -265 267 0
94 25 -265 -267 0
-104 -47 268 269 0
-104 -47 268 -269 0
-104 -47 -268 270 0
-104 -47 -268 -270 0
84 25 271 272 0
84 25 271 -272 0
84 25 -271 273 0
84 25 -271 -273 0
26 62 274 275 0
26 62 274 -275 0
26 62 -274 276 0
26 62 -274 -276 0
72 -15 277 278 0
72 -15 277 -278 0
72 -15 -277 279 0
72 -15 -277 -279 0
-87 81 280 281 0
-87 81 280 -281 0
-87 81 -280 282 0
-87 81 -280 -282 0
-31 40 -94 283 0
-31 40 -94 -283 0
86 -19 284 285 0
86 -19 284 -285 0
86 -19 -284 286 0
86 -19 -284 -286 0
-32 -71 287 288 0
-32 -71 287 -288 0
-32 -71 -287 289 0
-32 -71 -287 -289 0
-99 94 290 291 0
-99 94 290 -291 0
-99 94 -290 292 0
-99 94 -290 -292 0
80 33 293 294 0
80 33 293 -294 0
80 33 -293 295 0
80 33 -293 -295 0
-93 42 296 297 0
-93 42 296 -297 0
-93 42 -296 298 0
-93 42 -296 -298 0
2 53 299 300 0
2 53 299 -300 0
2 53 -299 301 0
2 53 -299 -301 0
67 -20 302 303 0
67 -20 302 -303 0
67 -20 -302 304 0
67 -20 -302 -304 0
73 -104 305 306 0
73 -104 305 -306 0
73 -104 -305 307 0
73 -104 -305 -307 0
18 28 308 309 0
18 28 308 -309 0
18 28 -308 310 0
18 28 -308 -310 0
-108 -3 311 312 0
-108 -3 311 -312 0
-108 -3 -311 313 0
-108 -3 -311 -313 0
-51 -97 314 315 0
-51 -97 314 -315 0
-51 -97 -314 316 0
-51 -97 -314 -316 0
68 80 317 318 0
68 80 317 -318 0
68 80 -317 319 0
68 80 -317 -319 0
88 -97 320 321 0
88 -97 320 -321 0
88 -97 -320 322 0
88 -97 -320 -322 0
-47 -52 323 324 0
-47 -52 323 -324 0
-47 -52 -323 325 0
-47 -52 -323 -325 0
-36 -77 326 327 0
-36 -77 326 -327 0
-36 -77 -326 328 0
-36 -77 -326 -328 0
-36 -55 329 330 0
-36 -55 329 -330 0
-36 -55 -329 331 0
-36 -55 -329 -331 0
-77 43 332 333 0
-77 43 332 -333 0
-77 43 -332 334 0
-77 43 -332 -334 0
-103 -60 335 336 0
-103 -60 335 -336 0
-103 -60 -335 337 0
-103 -60 -335 -337 0
62 -32 338 339 0
62 -32 338 -339 0
62 -32 -338 340 0
62 -32 -338 -340 0
-48 56 341 342 0
-48 56 341 -342 0
-48 56 -341 343 0
-48 56 -341 -343 0
-93 34 344 345 0
-93 34 344 -345 0
-93 34 -344 346 0
-93 34 -344 -346 0
-41 56 347 348 0
-41 56 347 -348 0
-41 56 -347 349 0
-41 56 -347 -349 0
61 74 65 350 0
61 74 65 -350 0
-8 -66 351 352 0
-8 -66 351 -352 0
-8 -66 -351 353 0
-8 -66 -351 -353 0
-12 -1 354 355 0
-12 -1 354 -355 0
-12 -1 -354 356 0
-12 -1 -354 -356 0
37 30 8 357 0
37 30 8 -357 0
-100 59 358 359 0
-100 59 358 -359 0
-100 59 -358 360 0
-100 59 -358 -360 0
-108 -96 361 362 0
-108 -96 361 -362 0
-108 -96 -361 363 0
-108 -96 -361 -363 0
105 -107 364 365 0
105 -107 364 -365 0
105 -107 -364 366 0
105 -107 -364 -366 0
17 53 367 368 0
17 53 367 -368 0
17 53 -367 369 0
17 53 -367 -369 0
-83 -98 49 370 0
-83 -98 49 -370 0
2 -76 371 372 0
2 -76 371 -372 0
2 -76 -371 373 0
2 -76 -371 -373 0
-30 -32 374 375 0
-30 -32 374 -375 0
-30 -32 -374 376 0
-30 -32 -374 -376 0
-11 79 377 378 0
-11 79 377 -378 0
-11 79 -377 379 0
-11 79 -377 -379 0
105 -65 380 381 0
105 -65 380 -381 0
105 -65 -380 382 0
105 -65 -380 -382 0
50 58 383 384 0
50 58 383 -384 0
50 58 -383 385 0
50 58 -383 -385 0
72 -14 386 387 0
72 -14 386 -387 0
72 -14 -386 388 0
72 -14 -386 -388 0
-17 10 82 389 0
-17 10 82 -389 0
67 31 390 391 0
67 31 390 -391 0
67 31 -390 392 0
67 31 -390 -392 0
63 38 393 394 0
63 38 393 -394 0
63 38 -393 395 0
63 38 -393 -395 0
53 31 396 397 0
53 31 396 -397 0
53 31 -396 398 0
53 31 -396 -398 0
-100 98 399 400 0
-100 98 399 -400 0
-100 98 -399 401 0
-100 98 -399 -401 0
-24 -36 402 403 0
-24 -36 402 -403 0
-24 -36 -402 404 0
-24 -36 -402 -404 0
2 -23 405 406 0
2 -23 405 -406 0
2 -23 -405 407 0
2 -23 -405 -407 0
42 -89 408 409 0
42 -89 408 -409 0
42 -89 -408 410 0
42 -89 -408 -410 0
17 -23 411 412 0
17 -23 411 -412 0
17 -23 -411 413 0
17 -23 -411 -413 0
70 -47 414 415 0
70 -47 414 -415 0
70 -47 -414 416 0
70 -47 -414 -416 0
-95 -13 417 418 0
-95 -13 417 -418 0
-95 -13 -417 419 0
-95 -13 -417 -419 0
-1 -46 420 421 0
-1 -46 420 -421 0
-1 -46 -420 422 0
-1 -46 -420 -422 0
53 -20 423 424 0
53 -20 423 -424 0
53 -20 -423 425 0
53 -20 -423 -425 0
-24 -55 426 427 0
-24 -55 426 -427 0
-24 -55 -426 428 0
-24 -55 -426 -428 0
-39 -37 429 430 0
-39 -37 429 -430 0
-39 -37 -429 431 0
-39 -37 -429 -431 0
79 83 432 433 0
79 83 432 -433 0
79 83 -432 434 0
79 83 -432 -434 0
58 -30 435 436 0
58 -30 435 -436 0
58 -30 -435 437 0
58 -30 -435 -437 0
22 -64 -28 438 0
22 -64 -28 -438 0
83 -10 439 440 0
83 -10 439 -440 0
83 -10 -439 441 0
83 -10 -439 -441 0
55 -91 5 442 0
55 -91 5 -442 0
93 13 -73 443 0
93 13 -73 -443 0
83 -29 444 445 0
83 -29 444 -445 0
83 -29 -444 446 0
83 -29 -444 -446 0
-66 -15 447 448 0
-66 -15 447 -448 0
-66 -15 -447 449 0
-66 -15 -447 -449 0
-10 54 450 451 0
-10 54 450 -451 0
-10 54 -450 452 0
-10 54 -450 -452 0
26 -71 453 454 0
26 -71 453 -454 0
26 -71 -453 455 0
26 -71 -453 -455 0
-35 98 456 457 0
-35 98 456 -457 0
-35 98 -456 458 0
-35 98 -456 -458 0
81 27 459 460 0
81 27 459 -460 0
81 27 -459 461 0
81 27 -459 -461 0
64 -65 462 463 0
64 -65 462 -463 0
64 -65 -462 464 0
64 -65 -462 -464 0
-47 86 465 466 0
-47 86 465 -466 0
-47 86 -465 467 0
-47 86 -465 -467 0
91 -104 468 469 0
91 -104 468 -469 0
91 -104 -468 470 0
91 -104 -468 -470 0
-60 -13 471 472 0
-60 -13 471 -472 0
-60 -13 -471 473 0
-60 -13 -471 -473 0
-102 -43 47 474 0
-102 -43 47 -474 0
-56 9 14 475 0
-56 9 14 -475 0
-15 63 476 477 0
-15 63 476 -477 0
-15 63 -476 478 0
-15 63 -476 -478 0
85 -40 479 480 0
85 -40 479 -480 0
85 -40 -479 481 0
85 -40 -479 -481 0
20 96 -84 482 0
20 96 -84 -482 0
81 -5 483 484 0
81 -5 483 -484 0
81 -5 -483 485 0
81 -5 -483 -485 0
-97 -35 486 487 0
-97 -35 486 -487 0
-97 -35 -486 488 0
-97 -35 -486 -488 0
-66 16 489 490 0
-66 16 489 -490 0
-66 16 -489 491 0
-66 16 -489 -491 0
50 -19 492 493 0
50 -19 492 -493 0
50 -19 -492 494 0
50 -19 -492 -494 0
-1 -37 495 496 0
-1 -37 495 -496 0
-1 -37 -495 497 0
-1 -37 -495 -497 0
-35 90 498 499 0
-35 90 498 -499 0
-35 90 -498 500 0
-35 90 -498 -500 0
-29 54 501 502 0
-29 54 501 -502 0
-29 54 -501 503 0
-29 54 -501 -503 0
-33 52 51 504 0
-33 52 51 -504 0
75 -49 505 506 0
75 -49 505 -506 0
75 -49 -505 507 0
75 -49 -505 -507 0
80 -101 508 509 0
80 -101 508 -509 0
80 -101 -508 510 0
80 -101 -508 -510 0
-7 25 511 512 0
-7 25 511 -512 0
-7 25 -511 513 0
-7 25 -511 -513 0
89 -58 48 514 0
89 -58 48 -514 0
91 6 515 516 0
91 6 515 -516 0
91 6 -515 517 0
91 6 -515 -517 0
-14 -66 518 519 0
-14 -66 518 -519 0
-14 -66 -518 520 0
-14 -66 -518 -520 0
28 -61 521 522 0
28 -61 521 -522 0
28 -61 -521 523 0
28 -61 -521 -523 0
87 77 -86 524 0
87 77 -86 -524 0
90 -107 525 526 0
90 -107 525 -526 0
90 -107 -525 527 0
90 -107 -525 -527 0
16 63 528 529 0
16 63 528 -529 0
16 63 -528 530 0
16 63 -528 -530 0
-95 -39 531 532 0
-95 -39 531 -532 0
-95 -39 -531 533 0
-95 -39 -531 -533 0
-67 108 99 534 0
-67 108 99 -534 0
-97 -21 535 536 0
-97 -21 535 -536 0
-97 -21 -535 537 0
-97 -21 -535 -537 0
-59 92 11 538 0
-59 92 11 -538 0
105 -108 539 540 0
105 -108 539 -540 0
105 -108 -539 541 0
105 -108 -539 -541 0
78 -29 542 543 0
78 -29 542 -543 0
78 -29 -542 544 0
78 -29 -542 -544 0
-42 -50 60 545 0
-42 -50 60 -545 0
-61 16 546 547 0
-61 16 546 -547 0
-61 16 -546 548 0
-61 16 -546 -548 0
66 41 32 549 0
66 41 32 -549 0
-49 33 550 551 0
-49 33 550 -551 0
-49 33 -550 552 0
-49 33 -550 -552 0
-101 -106 553 554 0
-101 -106 553 -554 0
-101 -106 -553 555 0
-101 -106 -553 -555 0
-52 78 556 557 0
-52 78 556 -557 0
-52 78 -556 558 0
-52 78 -556 -558 0
-52 -69 559 560 0
-52 -69 559 -560 0
-52 -69 -559 561 0
-52 -69 -559 -561 0
-52 83 562 563 0
-52 83 562 -563 0
-52 83 -562 564 0
-52 83 -562 -564 0
73 6 565 566 0
73 6 565 -566 0
73 6 -565 567 0
73 6 -565 -567 0
-76 -61 568 569 0
-76 -61 568 -569 0
-76 -61 -568 570 0
-76 -61 -568 -570 0
64 -1 571 572 0
64 -1 571 -572 0
64 -1 -571 573 0
64 -1 -571 -573 0
-82 85 574 575 0
-82 85 574 -575 0
-82 85 -574 576 0
-82 85 -574 -576 0
27 -93 577 578 0
27 -93 577 -578 0
27 -93 -577 579 0
27 -93 -577 -579 0
-11 84 580 581 0
-11 84 580 -581 0
-11 84 -580 582 0
-11 84 -580 -582 0
-92 -23 583 584 0
-92 -23 583 -584 0
-92 -23 -583 585 0
-92 -23 -583 -585 0
73 50 586 587 0
73 50 586 -587 0
73 50 -586 588 0
73 50 -586 -588 0
-20 -92 589 590 0
-20 -92 589 -590 0
-20 -92 -589 591 0
-20 -92 -589 -591 0
-9 6 592 593 0
-9 6 592 -593 0
-9 6 -592 594 0
-9 6 -592 -594 0
-46 -12 595 596 0
-46 -12 595 -596 0
-46 -12 -595 597 0
-46 -12 -595 -597 0
104 24 -27 598 0
104 24 -27 -598 0
81 42 599 600 0
81 42 599 -600 0
81 42 -599 601 0
81 42 -599 -601 0
-9 58 602 603 0
-9 58 602 -603 0
-9 58 -602 604 0
-9 58 -602 -604 0
-21 43 605 606 0
-21 43 605 -606 0
-21 43 -605 607 0
-21 43 -605 -607 0
102 27 608 609 0
102 27 608 -609 0
102 27 -608 610 0
102 27 -608 -610 0
-87 -106 611 612 0
-87 -106 611 -612 0
-87 -106 -611 613 0
-87 -106 -611 -613 0
-21 -55 614 615 0
-21 -55 614 -615 0
-21 -55 -614 616 0
-21 -55 -614 -616 0
-80 69 -88 617 0
-80 69 -88 -617 0
38 67 618 619 0
38 67 618 -619 0
38 67 -618 620 0
38 67 -618 -620 0
-44 -7 621 622 0
-44 -7 621 -622 0
-44 -7 -621 623 0
-44 -7 -621 -623 0
75 -23 624 625 0
75 -23 624 -625 0
75 -23 -624 626 0
75 -23 -624 -626 0
-51 98 627 628 0
-51 98 627 -628 0
-51 98 -627 629 0
-51 98 -627 -629 0
85 -96 630 631 0
85 -96 630 -631 0
85 -96 -630 632 0
85 -96 -630 -632 0
59 90 633 634 0
59 90 633 -634 0
59 90 -633 635 0
59 90 -633 -635 0
57 -9 636 637 0
57 -9 636 -637 0
57 -9 -636 638 0
57 -9 -636 -638 0
-51 43 639 640 0
-51 43 639 -640 0
-51 43 -639 641 0
-51 43 -639 -641 0
16 18 642 643 0
16 18 642 -643 0
16 18 -642 644 0
16 18 -642 -644 0
-99 84 645 646 0
-99 84 645 -646 0
-99 84 -645 647 0
-99 84 -645 -647 0
62 -30 648 649 0
62 -30 648 -649 0
62 -30 -648 650 0
62 -30 -648 -650 0
18 -8 651 652 0
18 -8 651 -652 0
18 -8 -651 653 0
18 -8 -651 -653 0
94 -22 654 655 0
94 -22 654 -655 0
94 -22 -654 656 0
94 -22 -654 -656 0
-9 -32 657 658 0
-9 -32 657 -658 0
-9 -32 -657 659 0
-9 -32 -657 -659 0
-40 64 660 661 0
-40 64 660 -661 0
-40 64 -660 662 0
-40 64 -660 -662 0
-53 -85 -25 663 0
-53 -85 -25 -663 0
75 -101 664 665 0
75 -101 664 -665 0
75 -101 -664 666 0
75 -101 -664 -666 0
-100 -35 667 668 0
-100 -35 667 -668 0
-100 -35 -667 669 0
-100 -35 -667 -669 0
68 -92 670 671 0
68 -92 670 -671 0
68 -92 -670 672 0
68 -92 -670 -672 0
78 70 673 674 0
78 70 673 -674 0
78 70 -673 675 0
78 70 -673 -675 0
57 62 676 677 0
57 62 676 -677 0
57 62 -676 678 0
57 62 -676 -678 0
-61 38 679 680 0
-61 38 679 -680 0
-61 38 -679 681 0
-61 38 -679 -681 0
35 29 -75 682 0
35 29 -75 -682 0
76 -105 44 683 0
76 -105 44 -683 0
-106 -5 684 685 0
-106 -5 684 -685 0
-106 -5 -684 686 0
-106 -5 -684 -686 0
-10 25 687 688 0
-10 25 687 -688 0
-10 25 -687 689 0
-10 25 -687 -689 0
-69 79 690 691 0
-69 79 690 -691 0
-69 79 -690 692 0
-69 79 -690 -692 0
-10 -11 693 694 0
-10 -11 693 -694 0
-10 -11 -693 695 0
-10 -11 -693 -695 0
-63 12 -26 696 0
-63 12 -26 -696 0
79 -29 697 698 0
79 -29 697 -698 0
79 -29 -697 699 0
79 -29 -697 -699 0
75 68 700 701 0
75 68 700 -701 0
75 68 -700 702 0
75 68 -700 -702 0
-106 102 703 704 0
-106 102 703 -704 0
-106 102 -703 705 0
-106 102 -703 -705 0
-22 4 706 707 0
-22 4 706 -707 0
-22 4 -706 708 0
-22 4 -706 -708 0
-76 31 709 710 0
-76 31 709 -710 0
-76 31 -709 711 0
-76 31 -709 -711 0
27 -5 712 713 0
27 -5 712 -713 0
27 -5 -712 714 0
27 -5 -712 -714 0
-95 -48 715 716 0
-95 -48 715 -716 0
-95 -48 -715 717 0
-95 -48 -715 -717 0
-107 -96 718 719 0
-107 -96 718 -719 0
-107 -96 -718 720 0
-107 -96 -718 -720 0
94 -44 721 722 0
94 -44 721 -722 0
94 -44 -721 723 0
94 -44 -721 -723 0
67 -76 724 725 0
67 -76 724 -725 0
67 -76 -724 726 0
67 -76 -724 -726 0
4 -99 727 728 0
4 -99 727 -728 0
4 -99 -727 729 0
4 -99 -727 -729 0
63 18 730 731 0
63 18 730 -731 0
63 18 -730 732 0
63 18 -730 -732 0
50 6 733 734 0
50 6 733 -734 0
50 6 -733 735 0
50 6 -733 -735 0
103 -6 -34 736 0
103 -6 -34 -736 0
23 -90 -54 737 0
23 -90 -54 -737 0
-8 -89 738 739 0
-8 -89 738 -739 0
-8 -89 -738 740 0
-8 -89 -738 -740 0
-45 -30 741 742 0
-45 -30 741 -742 0
-45 -30 -741 743 0
-45 -30 -741 -743 0
-108 -40 744 745 0
-108 -40 744 -745 0
-108 -40 -744 746 0
-108 -40 -744 -746 0
19 -81 36 747 0
19 -81 36 -747 0
-41 -46 748 749 0
-41 -46 748 -749 0
-41 -46 -748 750 0
-41 -46 -748 -750 0
-39 -41 751 752 0
-39 -41 751 -752 0
-39 -41 -751 753 0
-39 -41 -751 -753 0
-39 -12 754 755 0
-39 -12 754 -755 0
-39 -12 -754 756 0
-39 -12 -754 -756 0
-14 34 757 758 0
-14 34 757 -758 0
-14 34 -757 759 0
-14 34 -757 -759 0
-7 84 760 761 0
-7 84 760 -761 0
-7 84 -760 762 0
-7 84 -760 -762 0
-103 56 763 764 0
-103 56 763 -764 0
-103 56 -763 765 0
-103 56 -763 -765 0
-74 4 766 767 0
-74 4 766 -767 0
-74 4 -766 768 0
-74 4 -766 -768 0
-41 -37 769 770 0
-41 -37 769 -770 0
-41 -37 -769 771 0
-41 -37 -769 -771 0
-70 21 106 772 0
-70 21 106 -772 0
-38 -4 3 773 0
-38 -4 3 -773 0
72 -93 774 775 0
72 -93 774 -775 0
72 -93 -774 776 0
72 -93 -774 -776 0
-96 59 777 778 0
-96 59 777 -778 0
-96 59 -777 779 0
-96 59 -777 -779 0
71 46 -16 780 0
71 46 -16 -780 0
57 58 781 782 0
57 58 781 -782 0
57 58 -781 783 0
57 58 -781 -783 0
-95 56 784 785 0
-95 56 784 -785 0
-95 56 -784 786 0
-95 56 -784 -786 0
17 -49 787 788 0
17 -49 787 -788 0
17 -49 -787 789 0
17 -49 -787 -789 0
28 38 790 791 0
28 38 790 -791 0
28 38 -790 792 0
28 38 -790 -792 0

